(set-logic QF_LIA)
(declare-fun x0 () Int)
(declare-fun x1 () Int)
(declare-fun x2 () Int)
(declare-fun x3 () Int)
(declare-fun x4 () Int)
(declare-fun x5 () Int)
(declare-fun x6 () Int)
(declare-fun x7 () Int)
(declare-fun x8 () Int)
(declare-fun x9 () Int)
(declare-fun A0 () Bool)
(declare-fun A1 () Bool)
(declare-fun A2 () Bool)
(declare-fun A3 () Bool)
(declare-fun A4 () Bool)
(declare-fun A5 () Bool)
(declare-fun A6 () Bool)
(declare-fun A7 () Bool)
(declare-fun A8 () Bool)
(declare-fun A9 () Bool)
(assert (let ((.def_0 (* 1 x8))) (let ((.def_1 (* (- 1) x2))) (let ((.def_2 (+ .def_1 .def_0))) (let ((.def_3 (< .def_2 (- 1)))) (let ((.def_4 (not .def_3))) (let ((.def_5 (* 1 x6))) (let ((.def_6 (* (- 1) x3))) (let ((.def_7 (+ .def_6 .def_5))) (let ((.def_8 (< .def_7 1))) (let ((.def_9 (not .def_8))) (let ((.def_10 (or .def_9 .def_4))) (let ((.def_11 (not A0))) (let ((.def_12 (* (- 1) x7))) (let ((.def_13 (* (- 1) x6))) (let ((.def_14 (+ .def_13 .def_12))) (let ((.def_15 (< .def_14 1))) (let ((.def_16 (and .def_15 .def_11))) (let ((.def_17 (or .def_16 .def_10))) (let ((.def_18 (not .def_17))) (let ((.def_19 (not A2))) (let ((.def_20 (* 1 x1))) (let ((.def_21 (< .def_20 1))) (let ((.def_22 (or .def_21 .def_19))) (let ((.def_23 (not A6))) (let ((.def_24 (< .def_1 1))) (let ((.def_25 (not .def_24))) (let ((.def_26 (and .def_25 .def_23))) (let ((.def_27 (not .def_26))) (let ((.def_28 (and .def_27 .def_22))) (let ((.def_29 (not .def_28))) (let ((.def_30 (or .def_29 .def_18))) (let ((.def_31 (* (- 1) x1))) (let ((.def_32 (< .def_31 (- 1)))) (let ((.def_33 (and .def_19 .def_32))) (let ((.def_34 (not A7))) (let ((.def_35 (* 1 x5))) (let ((.def_36 (+ .def_35 .def_6))) (let ((.def_37 (< .def_36 (- 1)))) (let ((.def_38 (= .def_37 .def_34))) (let ((.def_39 (and .def_38 .def_33))) (let ((.def_40 (* 1 x0))) (let ((.def_41 (< .def_40 1))) (let ((.def_42 (not .def_41))) (let ((.def_43 (and A1 .def_42))) (let ((.def_44 (* 1 x7))) (let ((.def_45 (+ .def_20 .def_44))) (let ((.def_46 (< .def_45 1))) (let ((.def_47 (and A3 .def_46))) (let ((.def_48 (or .def_47 .def_43))) (let ((.def_49 (or .def_48 .def_39))) (let ((.def_50 (or .def_49 .def_30))) (let ((.def_51 (not .def_50))) (let ((.def_52 (not A5))) (let ((.def_53 (and A7 .def_52))) (let ((.def_54 (not .def_53))) (let ((.def_55 (* (- 1) x0))) (let ((.def_56 (< .def_55 (- 1)))) (let ((.def_57 (not A8))) (let ((.def_58 (and .def_57 .def_56))) (let ((.def_59 (and .def_58 .def_54))) (let ((.def_60 (* (- 1) x9))) (let ((.def_61 (* 1 x3))) (let ((.def_62 (+ .def_61 .def_60))) (let ((.def_63 (< .def_62 (- 1)))) (let ((.def_64 (or A7 .def_63))) (let ((.def_65 (* (- 1) x8))) (let ((.def_66 (< .def_65 1))) (let ((.def_67 (not .def_66))) (let ((.def_68 (and .def_67 .def_23))) (let ((.def_69 (or .def_68 .def_64))) (let ((.def_70 (and .def_69 .def_59))) (let ((.def_71 (< .def_35 (- 1)))) (let ((.def_72 (not .def_71))) (let ((.def_73 (= .def_72 A4))) (let ((.def_74 (not .def_73))) (let ((.def_75 (or .def_52 .def_23))) (let ((.def_76 (and .def_75 .def_74))) (let ((.def_77 (not .def_76))) (let ((.def_78 (* (- 1) x5))) (let ((.def_79 (+ .def_13 .def_78))) (let ((.def_80 (< .def_79 (- 1)))) (let ((.def_81 (not .def_80))) (let ((.def_82 (+ .def_65 .def_55))) (let ((.def_83 (< .def_82 (- 1)))) (let ((.def_84 (and .def_83 .def_81))) (let ((.def_85 (< .def_13 1))) (let ((.def_86 (not .def_85))) (let ((.def_87 (not A1))) (let ((.def_88 (or .def_87 .def_86))) (let ((.def_89 (= .def_88 .def_84))) (let ((.def_90 (not .def_89))) (let ((.def_91 (or .def_90 .def_77))) (let ((.def_92 (and .def_91 .def_70))) (let ((.def_93 (or .def_92 .def_51))) (let ((.def_94 (not .def_93))) (let ((.def_95 (+ .def_61 .def_65))) (let ((.def_96 (< .def_95 (- 1)))) (let ((.def_97 (not .def_96))) (let ((.def_98 (and .def_97 A0))) (let ((.def_99 (< .def_60 1))) (let ((.def_100 (* 1 x4))) (let ((.def_101 (< .def_100 1))) (let ((.def_102 (not .def_101))) (let ((.def_103 (and .def_102 .def_99))) (let ((.def_104 (or .def_103 .def_98))) (let ((.def_105 (* 1 x2))) (let ((.def_106 (< .def_105 (- 1)))) (let ((.def_107 (< .def_1 (- 1)))) (let ((.def_108 (not .def_107))) (let ((.def_109 (or .def_108 .def_106))) (let ((.def_110 (or .def_19 .def_34))) (let ((.def_111 (not .def_110))) (let ((.def_112 (and .def_111 .def_109))) (let ((.def_113 (and .def_112 .def_104))) (let ((.def_114 (* 1 x9))) (let ((.def_115 (< .def_114 1))) (let ((.def_116 (not .def_115))) (let ((.def_117 (not A3))) (let ((.def_118 (and .def_117 .def_116))) (let ((.def_119 (+ .def_65 .def_35))) (let ((.def_120 (< .def_119 1))) (let ((.def_121 (not .def_120))) (let ((.def_122 (< .def_114 (- 1)))) (let ((.def_123 (not .def_122))) (let ((.def_124 (and .def_123 .def_121))) (let ((.def_125 (or .def_124 .def_118))) (let ((.def_126 (+ .def_35 .def_100))) (let ((.def_127 (< .def_126 1))) (let ((.def_128 (not .def_127))) (let ((.def_129 (< .def_0 (- 1)))) (let ((.def_130 (or .def_129 .def_128))) (let ((.def_131 (+ .def_114 .def_78))) (let ((.def_132 (< .def_131 1))) (let ((.def_133 (not .def_132))) (let ((.def_134 (or .def_122 .def_133))) (let ((.def_135 (and .def_134 .def_130))) (let ((.def_136 (= .def_135 .def_125))) (let ((.def_137 (not .def_136))) (let ((.def_138 (and .def_137 .def_113))) (let ((.def_139 (not .def_138))) (let ((.def_140 (+ .def_35 .def_105))) (let ((.def_141 (< .def_140 (- 1)))) (let ((.def_142 (not .def_141))) (let ((.def_143 (+ .def_6 .def_0))) (let ((.def_144 (< .def_143 1))) (let ((.def_145 (or .def_144 .def_142))) (let ((.def_146 (not .def_145))) (let ((.def_147 (* (- 1) x4))) (let ((.def_148 (< .def_147 1))) (let ((.def_149 (not .def_32))) (let ((.def_150 (and .def_149 .def_148))) (let ((.def_151 (not .def_150))) (let ((.def_152 (and .def_151 .def_146))) (let ((.def_153 (+ .def_12 .def_78))) (let ((.def_154 (< .def_153 1))) (let ((.def_155 (+ .def_61 .def_31))) (let ((.def_156 (< .def_155 (- 1)))) (let ((.def_157 (not .def_156))) (let ((.def_158 (and .def_157 .def_154))) (let ((.def_159 (+ .def_1 .def_55))) (let ((.def_160 (< .def_159 (- 1)))) (let ((.def_161 (not .def_160))) (let ((.def_162 (not .def_129))) (let ((.def_163 (or .def_162 .def_161))) (let ((.def_164 (and .def_163 .def_158))) (let ((.def_165 (not .def_164))) (let ((.def_166 (or .def_165 .def_152))) (let ((.def_167 (not .def_166))) (let ((.def_168 (+ .def_0 .def_20))) (let ((.def_169 (< .def_168 1))) (let ((.def_170 (or .def_169 .def_23))) (let ((.def_171 (< .def_61 (- 1)))) (let ((.def_172 (not .def_171))) (let ((.def_173 (+ .def_5 .def_0))) (let ((.def_174 (< .def_173 (- 1)))) (let ((.def_175 (not .def_174))) (let ((.def_176 (or .def_175 .def_172))) (let ((.def_177 (not .def_176))) (let ((.def_178 (and .def_177 .def_170))) (let ((.def_179 (not .def_178))) (let ((.def_180 (+ .def_35 .def_12))) (let ((.def_181 (< .def_180 (- 1)))) (let ((.def_182 (not .def_181))) (let ((.def_183 (or .def_182 .def_71))) (let ((.def_184 (not A9))) (let ((.def_185 (and .def_184 .def_52))) (let ((.def_186 (and .def_185 .def_183))) (let ((.def_187 (or .def_186 .def_179))) (let ((.def_188 (not .def_187))) (let ((.def_189 (and .def_188 .def_167))) (let ((.def_190 (not .def_189))) (let ((.def_191 (or .def_190 .def_139))) (let ((.def_192 (and .def_191 .def_94))) (let ((.def_193 (<= x9 1))) (let ((.def_194 (<= 0 x9))) (let ((.def_195 (<= x8 1))) (let ((.def_196 (<= 0 x8))) (let ((.def_197 (<= x7 1))) (let ((.def_198 (<= 0 x7))) (let ((.def_199 (<= x6 1))) (let ((.def_200 (<= 0 x6))) (let ((.def_201 (<= x5 1))) (let ((.def_202 (<= 0 x5))) (let ((.def_203 (<= x4 1))) (let ((.def_204 (<= 0 x4))) (let ((.def_205 (<= x3 1))) (let ((.def_206 (<= 0 x3))) (let ((.def_207 (<= x2 1))) (let ((.def_208 (<= 0 x2))) (let ((.def_209 (<= x1 1))) (let ((.def_210 (<= 0 x1))) (let ((.def_211 (<= x0 1))) (let ((.def_212 (<= 0 x0))) (let ((.def_213 (and .def_212 .def_211 .def_210 .def_209 .def_208 .def_207 .def_206 .def_205 .def_204 .def_203 .def_202 .def_201 .def_200 .def_199 .def_198 .def_197 .def_196 .def_195 .def_194 .def_193 .def_192))) .def_213)))))))))))))))))))))))))))))))))))))))))))))))))))))))))))))))))))))))))))))))))))))))))))))))))))))))))))))))))))))))))))))))))))))))))))))))))))))))))))))))))))))))))))))))))))))))))))))))))))))))))))))))))))))))
(check-sat)
